61
98
57
39
68
15
10
74
8
28
45
81
83
48
21
59
27
95
65
11
77
40
87
67
26
97
89
1
18
3
99
46
76
34
13
43
37
53
23
88
56
84
91
20
86
55
16
71
41
93
50
54
24
0
79
6
42
2
51
44
70
30
22
66
63
12
52
35
5
38
31
4
25
92
64
47
75
36
14
94
73
29
49
9
33
58
60
72
17
85
32
90
78
80
7
69
82
62
96
19
